(set-logic QF_LRA)
(declare-fun T1 () Real )
(declare-fun T2 () Real )
(declare-fun T3 () Real )
(declare-fun T4 () Real )
(declare-fun T5 () Real )
(declare-fun T6 () Real )
(declare-fun T7 () Real )
(declare-fun T8 () Real )
(declare-fun Z () Real )
(declare-fun k () Real )
(assert (let
(( $goal (>= Z k) ))
(let
((
$phi ( and 
(or ( <= ( + T1 90 ) T2 ) ( <= ( + T2 11 ) T1 ) )
(or ( <= ( + T1 142 )  ( + T2 11 ) ) ( <= ( + T2 102 )( + T1 90 ) ) )
(or ( <= ( + T1 193 )  ( + T2 102 ) ) ( <= ( + T2 135 )( + T1 142 ) ) )
(or ( <= ( + T1 207 )  ( + T2 135 ) ) ( <= ( + T2 154 )( + T1 193 ) ) )
(or ( <= ( + T1 234 )  ( + T2 154 ) ) ( <= ( + T2 217 )( + T1 207 ) ) )
(or ( <= ( + T1 310 )  ( + T2 217 ) ) ( <= ( + T2 247 )( + T1 234 ) ) )
(or ( <= ( + T1 90 ) T3 ) ( <= ( + T3 22 ) T1 ) )
(or ( <= ( + T1 142 )  ( + T3 22 ) ) ( <= ( + T3 77 )( + T1 90 ) ) )
(or ( <= ( + T1 193 )  ( + T3 77 ) ) ( <= ( + T3 102 )( + T1 142 ) ) )
(or ( <= ( + T1 207 )  ( + T3 102 ) ) ( <= ( + T3 170 )( + T1 193 ) ) )
(or ( <= ( + T1 234 )  ( + T3 170 ) ) ( <= ( + T3 244 )( + T1 207 ) ) )
(or ( <= ( + T1 310 )  ( + T3 244 ) ) ( <= ( + T3 256 )( + T1 234 ) ) )
(or ( <= ( + T1 90 ) T4 ) ( <= ( + T4 9 ) T1 ) )
(or ( <= ( + T1 142 )  ( + T4 9 ) ) ( <= ( + T4 87 )( + T1 90 ) ) )
(or ( <= ( + T1 193 )  ( + T4 87 ) ) ( <= ( + T4 106 )( + T1 142 ) ) )
(or ( <= ( + T1 207 )  ( + T4 106 ) ) ( <= ( + T4 165 )( + T1 193 ) ) )
(or ( <= ( + T1 234 )  ( + T4 165 ) ) ( <= ( + T4 265 )( + T1 207 ) ) )
(or ( <= ( + T1 310 )  ( + T4 265 ) ) ( <= ( + T4 327 )( + T1 234 ) ) )
(or ( <= ( + T1 90 ) T5 ) ( <= ( + T5 15 ) T1 ) )
(or ( <= ( + T1 142 )  ( + T5 15 ) ) ( <= ( + T5 71 )( + T1 90 ) ) )
(or ( <= ( + T1 193 )  ( + T5 71 ) ) ( <= ( + T5 77 )( + T1 142 ) ) )
(or ( <= ( + T1 207 )  ( + T5 77 ) ) ( <= ( + T5 153 )( + T1 193 ) ) )
(or ( <= ( + T1 234 )  ( + T5 153 ) ) ( <= ( + T5 224 )( + T1 207 ) ) )
(or ( <= ( + T1 310 )  ( + T5 224 ) ) ( <= ( + T5 268 )( + T1 234 ) ) )
(or ( <= ( + T1 90 ) T6 ) ( <= ( + T6 22 ) T1 ) )
(or ( <= ( + T1 142 )  ( + T6 22 ) ) ( <= ( + T6 82 )( + T1 90 ) ) )
(or ( <= ( + T1 193 )  ( + T6 82 ) ) ( <= ( + T6 129 )( + T1 142 ) ) )
(or ( <= ( + T1 207 )  ( + T6 129 ) ) ( <= ( + T6 153 )( + T1 193 ) ) )
(or ( <= ( + T1 234 )  ( + T6 153 ) ) ( <= ( + T6 179 )( + T1 207 ) ) )
(or ( <= ( + T1 310 )  ( + T6 179 ) ) ( <= ( + T6 205 )( + T1 234 ) ) )
(or ( <= ( + T1 90 ) T7 ) ( <= ( + T7 99 ) T1 ) )
(or ( <= ( + T1 142 )  ( + T7 99 ) ) ( <= ( + T7 135 )( + T1 90 ) ) )
(or ( <= ( + T1 193 )  ( + T7 135 ) ) ( <= ( + T7 151 )( + T1 142 ) ) )
(or ( <= ( + T1 207 )  ( + T7 151 ) ) ( <= ( + T7 234 )( + T1 193 ) ) )
(or ( <= ( + T1 234 )  ( + T7 234 ) ) ( <= ( + T7 240 )( + T1 207 ) ) )
(or ( <= ( + T1 310 )  ( + T7 240 ) ) ( <= ( + T7 271 )( + T1 234 ) ) )
(or ( <= ( + T1 90 ) T8 ) ( <= ( + T8 12 ) T1 ) )
(or ( <= ( + T1 142 )  ( + T8 12 ) ) ( <= ( + T8 39 )( + T1 90 ) ) )
(or ( <= ( + T1 193 )  ( + T8 39 ) ) ( <= ( + T8 124 )( + T1 142 ) ) )
(or ( <= ( + T1 207 )  ( + T8 124 ) ) ( <= ( + T8 161 )( + T1 193 ) ) )
(or ( <= ( + T1 234 )  ( + T8 161 ) ) ( <= ( + T8 208 )( + T1 207 ) ) )
(or ( <= ( + T1 310 )  ( + T8 208 ) ) ( <= ( + T8 218 )( + T1 234 ) ) )
(or ( <= ( + T2 11 ) T3 ) ( <= ( + T3 22 ) T2 ) )
(or ( <= ( + T2 102 )  ( + T3 22 ) ) ( <= ( + T3 77 )( + T2 11 ) ) )
(or ( <= ( + T2 135 )  ( + T3 77 ) ) ( <= ( + T3 102 )( + T2 102 ) ) )
(or ( <= ( + T2 154 )  ( + T3 102 ) ) ( <= ( + T3 170 )( + T2 135 ) ) )
(or ( <= ( + T2 217 )  ( + T3 170 ) ) ( <= ( + T3 244 )( + T2 154 ) ) )
(or ( <= ( + T2 247 )  ( + T3 244 ) ) ( <= ( + T3 256 )( + T2 217 ) ) )
(or ( <= ( + T2 11 ) T4 ) ( <= ( + T4 9 ) T2 ) )
(or ( <= ( + T2 102 )  ( + T4 9 ) ) ( <= ( + T4 87 )( + T2 11 ) ) )
(or ( <= ( + T2 135 )  ( + T4 87 ) ) ( <= ( + T4 106 )( + T2 102 ) ) )
(or ( <= ( + T2 154 )  ( + T4 106 ) ) ( <= ( + T4 165 )( + T2 135 ) ) )
(or ( <= ( + T2 217 )  ( + T4 165 ) ) ( <= ( + T4 265 )( + T2 154 ) ) )
(or ( <= ( + T2 247 )  ( + T4 265 ) ) ( <= ( + T4 327 )( + T2 217 ) ) )
(or ( <= ( + T2 11 ) T5 ) ( <= ( + T5 15 ) T2 ) )
(or ( <= ( + T2 102 )  ( + T5 15 ) ) ( <= ( + T5 71 )( + T2 11 ) ) )
(or ( <= ( + T2 135 )  ( + T5 71 ) ) ( <= ( + T5 77 )( + T2 102 ) ) )
(or ( <= ( + T2 154 )  ( + T5 77 ) ) ( <= ( + T5 153 )( + T2 135 ) ) )
(or ( <= ( + T2 217 )  ( + T5 153 ) ) ( <= ( + T5 224 )( + T2 154 ) ) )
(or ( <= ( + T2 247 )  ( + T5 224 ) ) ( <= ( + T5 268 )( + T2 217 ) ) )
(or ( <= ( + T2 11 ) T6 ) ( <= ( + T6 22 ) T2 ) )
(or ( <= ( + T2 102 )  ( + T6 22 ) ) ( <= ( + T6 82 )( + T2 11 ) ) )
(or ( <= ( + T2 135 )  ( + T6 82 ) ) ( <= ( + T6 129 )( + T2 102 ) ) )
(or ( <= ( + T2 154 )  ( + T6 129 ) ) ( <= ( + T6 153 )( + T2 135 ) ) )
(or ( <= ( + T2 217 )  ( + T6 153 ) ) ( <= ( + T6 179 )( + T2 154 ) ) )
(or ( <= ( + T2 247 )  ( + T6 179 ) ) ( <= ( + T6 205 )( + T2 217 ) ) )
(or ( <= ( + T2 11 ) T7 ) ( <= ( + T7 99 ) T2 ) )
(or ( <= ( + T2 102 )  ( + T7 99 ) ) ( <= ( + T7 135 )( + T2 11 ) ) )
(or ( <= ( + T2 135 )  ( + T7 135 ) ) ( <= ( + T7 151 )( + T2 102 ) ) )
(or ( <= ( + T2 154 )  ( + T7 151 ) ) ( <= ( + T7 234 )( + T2 135 ) ) )
(or ( <= ( + T2 217 )  ( + T7 234 ) ) ( <= ( + T7 240 )( + T2 154 ) ) )
(or ( <= ( + T2 247 )  ( + T7 240 ) ) ( <= ( + T7 271 )( + T2 217 ) ) )
(or ( <= ( + T2 11 ) T8 ) ( <= ( + T8 12 ) T2 ) )
(or ( <= ( + T2 102 )  ( + T8 12 ) ) ( <= ( + T8 39 )( + T2 11 ) ) )
(or ( <= ( + T2 135 )  ( + T8 39 ) ) ( <= ( + T8 124 )( + T2 102 ) ) )
(or ( <= ( + T2 154 )  ( + T8 124 ) ) ( <= ( + T8 161 )( + T2 135 ) ) )
(or ( <= ( + T2 217 )  ( + T8 161 ) ) ( <= ( + T8 208 )( + T2 154 ) ) )
(or ( <= ( + T2 247 )  ( + T8 208 ) ) ( <= ( + T8 218 )( + T2 217 ) ) )
(or ( <= ( + T3 22 ) T4 ) ( <= ( + T4 9 ) T3 ) )
(or ( <= ( + T3 77 )  ( + T4 9 ) ) ( <= ( + T4 87 )( + T3 22 ) ) )
(or ( <= ( + T3 102 )  ( + T4 87 ) ) ( <= ( + T4 106 )( + T3 77 ) ) )
(or ( <= ( + T3 170 )  ( + T4 106 ) ) ( <= ( + T4 165 )( + T3 102 ) ) )
(or ( <= ( + T3 244 )  ( + T4 165 ) ) ( <= ( + T4 265 )( + T3 170 ) ) )
(or ( <= ( + T3 256 )  ( + T4 265 ) ) ( <= ( + T4 327 )( + T3 244 ) ) )
(or ( <= ( + T3 22 ) T5 ) ( <= ( + T5 15 ) T3 ) )
(or ( <= ( + T3 77 )  ( + T5 15 ) ) ( <= ( + T5 71 )( + T3 22 ) ) )
(or ( <= ( + T3 102 )  ( + T5 71 ) ) ( <= ( + T5 77 )( + T3 77 ) ) )
(or ( <= ( + T3 170 )  ( + T5 77 ) ) ( <= ( + T5 153 )( + T3 102 ) ) )
(or ( <= ( + T3 244 )  ( + T5 153 ) ) ( <= ( + T5 224 )( + T3 170 ) ) )
(or ( <= ( + T3 256 )  ( + T5 224 ) ) ( <= ( + T5 268 )( + T3 244 ) ) )
(or ( <= ( + T3 22 ) T6 ) ( <= ( + T6 22 ) T3 ) )
(or ( <= ( + T3 77 )  ( + T6 22 ) ) ( <= ( + T6 82 )( + T3 22 ) ) )
(or ( <= ( + T3 102 )  ( + T6 82 ) ) ( <= ( + T6 129 )( + T3 77 ) ) )
(or ( <= ( + T3 170 )  ( + T6 129 ) ) ( <= ( + T6 153 )( + T3 102 ) ) )
(or ( <= ( + T3 244 )  ( + T6 153 ) ) ( <= ( + T6 179 )( + T3 170 ) ) )
(or ( <= ( + T3 256 )  ( + T6 179 ) ) ( <= ( + T6 205 )( + T3 244 ) ) )
(or ( <= ( + T3 22 ) T7 ) ( <= ( + T7 99 ) T3 ) )
(or ( <= ( + T3 77 )  ( + T7 99 ) ) ( <= ( + T7 135 )( + T3 22 ) ) )
(or ( <= ( + T3 102 )  ( + T7 135 ) ) ( <= ( + T7 151 )( + T3 77 ) ) )
(or ( <= ( + T3 170 )  ( + T7 151 ) ) ( <= ( + T7 234 )( + T3 102 ) ) )
(or ( <= ( + T3 244 )  ( + T7 234 ) ) ( <= ( + T7 240 )( + T3 170 ) ) )
(or ( <= ( + T3 256 )  ( + T7 240 ) ) ( <= ( + T7 271 )( + T3 244 ) ) )
(or ( <= ( + T3 22 ) T8 ) ( <= ( + T8 12 ) T3 ) )
(or ( <= ( + T3 77 )  ( + T8 12 ) ) ( <= ( + T8 39 )( + T3 22 ) ) )
(or ( <= ( + T3 102 )  ( + T8 39 ) ) ( <= ( + T8 124 )( + T3 77 ) ) )
(or ( <= ( + T3 170 )  ( + T8 124 ) ) ( <= ( + T8 161 )( + T3 102 ) ) )
(or ( <= ( + T3 244 )  ( + T8 161 ) ) ( <= ( + T8 208 )( + T3 170 ) ) )
(or ( <= ( + T3 256 )  ( + T8 208 ) ) ( <= ( + T8 218 )( + T3 244 ) ) )
(or ( <= ( + T4 9 ) T5 ) ( <= ( + T5 15 ) T4 ) )
(or ( <= ( + T4 87 )  ( + T5 15 ) ) ( <= ( + T5 71 )( + T4 9 ) ) )
(or ( <= ( + T4 106 )  ( + T5 71 ) ) ( <= ( + T5 77 )( + T4 87 ) ) )
(or ( <= ( + T4 165 )  ( + T5 77 ) ) ( <= ( + T5 153 )( + T4 106 ) ) )
(or ( <= ( + T4 265 )  ( + T5 153 ) ) ( <= ( + T5 224 )( + T4 165 ) ) )
(or ( <= ( + T4 327 )  ( + T5 224 ) ) ( <= ( + T5 268 )( + T4 265 ) ) )
(or ( <= ( + T4 9 ) T6 ) ( <= ( + T6 22 ) T4 ) )
(or ( <= ( + T4 87 )  ( + T6 22 ) ) ( <= ( + T6 82 )( + T4 9 ) ) )
(or ( <= ( + T4 106 )  ( + T6 82 ) ) ( <= ( + T6 129 )( + T4 87 ) ) )
(or ( <= ( + T4 165 )  ( + T6 129 ) ) ( <= ( + T6 153 )( + T4 106 ) ) )
(or ( <= ( + T4 265 )  ( + T6 153 ) ) ( <= ( + T6 179 )( + T4 165 ) ) )
(or ( <= ( + T4 327 )  ( + T6 179 ) ) ( <= ( + T6 205 )( + T4 265 ) ) )
(or ( <= ( + T4 9 ) T7 ) ( <= ( + T7 99 ) T4 ) )
(or ( <= ( + T4 87 )  ( + T7 99 ) ) ( <= ( + T7 135 )( + T4 9 ) ) )
(or ( <= ( + T4 106 )  ( + T7 135 ) ) ( <= ( + T7 151 )( + T4 87 ) ) )
(or ( <= ( + T4 165 )  ( + T7 151 ) ) ( <= ( + T7 234 )( + T4 106 ) ) )
(or ( <= ( + T4 265 )  ( + T7 234 ) ) ( <= ( + T7 240 )( + T4 165 ) ) )
(or ( <= ( + T4 327 )  ( + T7 240 ) ) ( <= ( + T7 271 )( + T4 265 ) ) )
(or ( <= ( + T4 9 ) T8 ) ( <= ( + T8 12 ) T4 ) )
(or ( <= ( + T4 87 )  ( + T8 12 ) ) ( <= ( + T8 39 )( + T4 9 ) ) )
(or ( <= ( + T4 106 )  ( + T8 39 ) ) ( <= ( + T8 124 )( + T4 87 ) ) )
(or ( <= ( + T4 165 )  ( + T8 124 ) ) ( <= ( + T8 161 )( + T4 106 ) ) )
(or ( <= ( + T4 265 )  ( + T8 161 ) ) ( <= ( + T8 208 )( + T4 165 ) ) )
(or ( <= ( + T4 327 )  ( + T8 208 ) ) ( <= ( + T8 218 )( + T4 265 ) ) )
(or ( <= ( + T5 15 ) T6 ) ( <= ( + T6 22 ) T5 ) )
(or ( <= ( + T5 71 )  ( + T6 22 ) ) ( <= ( + T6 82 )( + T5 15 ) ) )
(or ( <= ( + T5 77 )  ( + T6 82 ) ) ( <= ( + T6 129 )( + T5 71 ) ) )
(or ( <= ( + T5 153 )  ( + T6 129 ) ) ( <= ( + T6 153 )( + T5 77 ) ) )
(or ( <= ( + T5 224 )  ( + T6 153 ) ) ( <= ( + T6 179 )( + T5 153 ) ) )
(or ( <= ( + T5 268 )  ( + T6 179 ) ) ( <= ( + T6 205 )( + T5 224 ) ) )
(or ( <= ( + T5 15 ) T7 ) ( <= ( + T7 99 ) T5 ) )
(or ( <= ( + T5 71 )  ( + T7 99 ) ) ( <= ( + T7 135 )( + T5 15 ) ) )
(or ( <= ( + T5 77 )  ( + T7 135 ) ) ( <= ( + T7 151 )( + T5 71 ) ) )
(or ( <= ( + T5 153 )  ( + T7 151 ) ) ( <= ( + T7 234 )( + T5 77 ) ) )
(or ( <= ( + T5 224 )  ( + T7 234 ) ) ( <= ( + T7 240 )( + T5 153 ) ) )
(or ( <= ( + T5 268 )  ( + T7 240 ) ) ( <= ( + T7 271 )( + T5 224 ) ) )
(or ( <= ( + T5 15 ) T8 ) ( <= ( + T8 12 ) T5 ) )
(or ( <= ( + T5 71 )  ( + T8 12 ) ) ( <= ( + T8 39 )( + T5 15 ) ) )
(or ( <= ( + T5 77 )  ( + T8 39 ) ) ( <= ( + T8 124 )( + T5 71 ) ) )
(or ( <= ( + T5 153 )  ( + T8 124 ) ) ( <= ( + T8 161 )( + T5 77 ) ) )
(or ( <= ( + T5 224 )  ( + T8 161 ) ) ( <= ( + T8 208 )( + T5 153 ) ) )
(or ( <= ( + T5 268 )  ( + T8 208 ) ) ( <= ( + T8 218 )( + T5 224 ) ) )
(or ( <= ( + T6 22 ) T7 ) ( <= ( + T7 99 ) T6 ) )
(or ( <= ( + T6 82 )  ( + T7 99 ) ) ( <= ( + T7 135 )( + T6 22 ) ) )
(or ( <= ( + T6 129 )  ( + T7 135 ) ) ( <= ( + T7 151 )( + T6 82 ) ) )
(or ( <= ( + T6 153 )  ( + T7 151 ) ) ( <= ( + T7 234 )( + T6 129 ) ) )
(or ( <= ( + T6 179 )  ( + T7 234 ) ) ( <= ( + T7 240 )( + T6 153 ) ) )
(or ( <= ( + T6 205 )  ( + T7 240 ) ) ( <= ( + T7 271 )( + T6 179 ) ) )
(or ( <= ( + T6 22 ) T8 ) ( <= ( + T8 12 ) T6 ) )
(or ( <= ( + T6 82 )  ( + T8 12 ) ) ( <= ( + T8 39 )( + T6 22 ) ) )
(or ( <= ( + T6 129 )  ( + T8 39 ) ) ( <= ( + T8 124 )( + T6 82 ) ) )
(or ( <= ( + T6 153 )  ( + T8 124 ) ) ( <= ( + T8 161 )( + T6 129 ) ) )
(or ( <= ( + T6 179 )  ( + T8 161 ) ) ( <= ( + T8 208 )( + T6 153 ) ) )
(or ( <= ( + T6 205 )  ( + T8 208 ) ) ( <= ( + T8 218 )( + T6 179 ) ) )
(or ( <= ( + T7 99 ) T8 ) ( <= ( + T8 12 ) T7 ) )
(or ( <= ( + T7 135 )  ( + T8 12 ) ) ( <= ( + T8 39 )( + T7 99 ) ) )
(or ( <= ( + T7 151 )  ( + T8 39 ) ) ( <= ( + T8 124 )( + T7 135 ) ) )
(or ( <= ( + T7 234 )  ( + T8 124 ) ) ( <= ( + T8 161 )( + T7 151 ) ) )
(or ( <= ( + T7 240 )  ( + T8 161 ) ) ( <= ( + T8 208 )( + T7 234 ) ) )
(or ( <= ( + T7 271 )  ( + T8 208 ) ) ( <= ( + T8 218 )( + T7 240 ) ) )
( <= ( + T1 310 ) Z)
( <= ( + T2 247 ) Z)
( <= ( + T3 256 ) Z)
( <= ( + T4 327 ) Z)
( <= ( + T5 268 ) Z)
( <= ( + T6 205 ) Z)
( <= ( + T7 271 ) Z)
( <= ( + T8 218 ) Z)
( >= T1 0 )
( >= T2 0 )
( >= T3 0 )
( >= T4 0 )
( >= T5 0 )
( >= T6 0 )
( >= T7 0 )
( >= T8 0 )
) )
)(=> $phi $goal))))